c This Formular is generated by mcnf
c
c    horn? no 
c    forced? no 
c    mixed sat? no 
c    clause length = 3 
c
p cnf 20  91 
 -19 -18 -12 0
2 -10 -17 0
12 -4 -5 0
-8 16 -12 0
14 6 8 0
-19 -17 20 0
4 -20 18 0
-17 -2 -13 0
-7 -14 -18 0
6 1 5 0
-5 -2 -10 0
1 -13 -8 0
3 -13 -8 0
8 -4 -5 0
3 1 -7 0
-12 -7 -10 0
12 -4 -17 0
15 7 20 0
9 10 -13 0
-5 -9 -2 0
-3 -1 5 0
%
0

91 92 19 63 8 4 11 43 43 61 28 99 3 67 3 29 88 39 30 15
